
  22    4
  10   10   10   10

   0   0   0   0   0   6 2 3 4 5 6 9 
   2  10  10  10  10   4 21 13 10 7 
  10  10  10  10  10   6 21 20 19 15 13 10 
   7  10  10  10  10   5 21 20 19 15 11 
   2  10  10  10  10   2 20 8 
   5  10  10  10  10   1 7 
   8  10  10  10  10   4 20 19 15 11 
   6  10  10  10  10   3 19 15 11 
   9  10  10  10  10   4 19 17 15 12 
   1  10  10  10  10   1 11 
  10  10  10  10  10   3 18 17 12 
   2  10  10  10  10   1 14 
   2  10  10  10  10   1 14 
   9  10  10  10  10   1 16 
   5  10  10  10  10   1 16 
   6  10  10  10  10   1 22
   8  10  10  10  10   1 22
   8  10  10  10  10   1 22
   4  10  10  10  10   1 22
   5  10  10  10  10   1 22
   8  10  10  10  10   1 22
   0   0   0   0   0   0 
